&CONTROL
  calculation = 'scf',
  restart_mode = 'from_scratch',
  prefix = 'silicon',
  outdir = './tmp/'
  pseudo_dir = '.'
  verbosity = 'high'
/

&SYSTEM
  ibrav =  2,
  celldm(1) = 10.2076,
  nat =  2,
  ntyp = 1,
  ecutwfc = 60,
  ecutrho = 500,
  nbnd = 30,
!  occupations = 'smearing',
!  smearing = 'gaussian',
!  degauss = 0.005
/

&ELECTRONS
  conv_thr = 1e-8,
  mixing_beta = 0.3
/

ATOMIC_SPECIES
  Si 28.086 Si.pbe-n-kjpaw_psl.1.0.0.UPF

ATOMIC_POSITIONS (alat)
  Si 0.0 0.0 0.0
  Si 0.25 0.25 0.25

K_POINTS (automatic)
  12 12 12 0 0 0
