&control
 calculation='bands'
 prefix='1c_dos'
 pseudo_dir='/home/ubuntu/aws/492/'
 outdir='./outdir/'
/
&system    
 ibrav 	= 6
 a     	= 10
 b     	= 10
 c     	= 1.2847
 nat   	= 1
 ntyp  	= 1
 ecutwfc = 45
 occupations = 'smearing'
 smearing = 'mp'
 degauss=0.01
 nbnd=8
/
&electrons
/
ATOMIC_SPECIES
 C      12.01100     C.pbe-n-kjpaw_psl.1.0.0.UPF
ATOMIC_POSITIONS angstrom
 C 0.00 0.00 0.00 
K_POINTS tpiba_b
 2
  gG     20
  Z      20
