&BANDS
    prefix='1c_dos'
    outdir='./outdir/'
    filband='6_c.bands_pp.dat'
/
