&CONTROL
  calculation = 'vc-relax'
  outdir = './outdir/'
  prefix = 'b2n2'
  pseudo_dir = '../'
/
&SYSTEM
  ecutwfc = 80
  ibrav = 0
  nat = 4
  ntyp = 2
/
&ELECTRONS
  conv_thr =   1d-08
/

ATOMIC_SPECIES
 B      10.811     B_pbe_v1.01.uspp.F.UPF
 N      14.0067    N.oncvpsp.upf

ATOMIC_POSITIONS (crystal)
 B   0.1859956236       0.7482459488       0.0000000000 
 B   0.8161925602       0.7482459488       0.0000000000 
 N   0.3435448578       0.2500000000       0.0000000000 
 N   0.6586433260       0.2500000000       0.0000000000 
K_POINTS (automatic)
 5 5 1 0 0 0
CELL_PARAMETERS (angstrom)
 4.57   0.00  0.00  
 0.00   2.50  0.00 
 0.00   0.00  10.0