phonon calc.
&INPUTPH
outdir = './tmp/'
prefix = 'gr'
tr2_ph = 1d-14
ldisp  = .true.
nq1    = 4
nq2    = 4
nq3    = 1
fildyn = 'gr.dyn'
/
