&CONTROL
  calculation = 'scf',
  prefix = 'silicon',
  outdir = './tmp/'
  pseudo_dir = '.'
  verbosity = 'low'
  disk_io='none'
/

&SYSTEM
  ibrav =  2,
  celldm(1) = 10.2076,
  nat =  2,
  ntyp = 1,
  ecutwfc = 44,
  ecutrho = 175,
  nbnd = 8,
  input_dft='PBE0',
  nqx1=2, nqx2=2, nqx3=2,
  x_gamma_extrapolation=.true.
  exxdiv_treatment='gygi-baldereschi'
/

&ELECTRONS
  conv_thr = 1e-6
/

ATOMIC_SPECIES
  Si 28.086 Si.pbe-n-kjpaw_psl.1.0.0.UPF

ATOMIC_POSITIONS (alat)
  Si 0.0 0.0 0.0
  Si 0.25 0.25 0.25

K_POINTS (automatic)
  6 6 6 0 0 0
