&control
 calculation='vc-relax'
 prefix='1c_clat'
 pseudo_dir='../'
 outdir='./outdir/'
/
&system    
 ibrav 	= 6
 a     	= 10
 b     	= 10
 c     	= 1.282
 nat   	= 1
 ntyp  	= 1
 ecutwfc = 45
 occupations = 'smearing'
 smearing = 'gauss'
 degauss = 0.01
 input_dft='hse'
 nqx1=1, nqx2=1, nqx3=2
 x_gamma_extrapolation=.TRUE.
 exxdiv_treatment='gygi-baldereschi'
/
&electrons
/
&ions
/
&cell
/
ATOMIC_SPECIES
 C      12.01100     C.pbe-n-kjpaw_psl.1.0.0.UPF
ATOMIC_POSITIONS (angstrom)
 C 0.00 0.00 0.00 
K_POINTS automatic
 1 1 40 0 0 0
