 &CONTROL
   calculation     =  'scf'
   outdir          =  './tmp/'
   prefix          =  'Al'
   pseudo_dir      =  '.'
   tstress         =  .false.
 /

 &SYSTEM
   celldm(1)       =  7.222594306310503
   degauss         =  0.02
   ecutrho         =  160
   ecutwfc         =  20
   ibrav           =  2
   nat             =  1
   ntyp            =  1
   occupations     =  'smearing'
   smearing        =  'marzari-vanderbilt'
 /

 &ELECTRONS
 /

ATOMIC_SPECIES 
  Al    26.98   Al.pz-vbc.UPF 


ATOMIC_POSITIONS alat
  Al       0.000000000000   0.000000000000   0.000000000000

K_POINTS automatic
  8   8   8   1   1   1 



