&control
 calculation='scf'
 prefix='hse'
 pseudo_dir='.'
 outdir='./outdir/'
/
&system    
 ibrav 	= 6
 a     	= 10
 b     	= 10
 c     	= 1.2847
 nat   	= 1
 ntyp  	= 1
 ecutwfc = 45
 occupations = 'smearing'
 smearing = 'mp'
 input_dft='hse',
  nqx1=1, nqx2=1, nqx3=4,
  x_gamma_extrapolation=.true.,
  exxdiv_treatment='gygi-baldereschi',
 degauss=0.01,
 nbnd=8
/
&electrons
/
ATOMIC_SPECIES
 C      12.01100     C_ONCV_PBE_sr.upf
ATOMIC_POSITIONS (angstrom)
 C 0.00 0.00 0.00 
K_POINTS automatic
 1 1 40 1 1 1
