&control
 calculation='nscf'
 prefix='soc'
 pseudo_dir='.'
 outdir='./outdir/'
/
&system    
 ibrav 	= 6
 a     	= 10
 b     	= 10
 c     	= 1.2847
 nat   	= 1
 ntyp  	= 1
 ecutwfc = 45
 occupations = 'tetrahedra'
 lspinorb=.true.
 noncolin=.true.
 nbnd=20
/
&electrons
/
ATOMIC_SPECIES
 C      12.01100     C.rel-pbe-n-kjpaw_psl.1.0.0.UPF
ATOMIC_POSITIONS (angstrom)
 C 0.00 0.00 0.00 
K_POINTS automatic
 1 1 81 1 1 1
