&DOS
    prefix='soc'
    outdir='./outdir'
    fildos='3_c.dos.dat'
    Emin=-21
    Emax=20
    DeltaE=0.01
/
