&control
 calculation='bands'
 prefix='soc'
 pseudo_dir='.'
 outdir='./outdir/'
/
&system    
 ibrav 	= 6
 a     	= 10
 b     	= 10
 c     	= 1.2847
 nat   	= 1
 ntyp  	= 1
 ecutwfc = 45
 occupations = 'smearing'
 smearing = 'mp'
 lspinorb=.true.
 noncolin=.true.
 degauss=0.01
 nbnd=20
/
&electrons
/
ATOMIC_SPECIES
 C      12.01100     C.rel-pbe-n-kjpaw_psl.1.0.0.UPF
ATOMIC_POSITIONS angstrom
 C 0.00 0.00 0.00 
K_POINTS tpiba_b
 2
  gG     30
  Z      30
