&control
 calculation='scf'
 prefix='1c_112'
 pseudo_dir='/home/ubuntu/aws/492/'
 outdir='./outdir/'
/

&system    
 ibrav 	= 6
 a     	= 10
 b     	= 10
 c     	= 2.56454523
 nat   	= 2
 ntyp  	= 1
 ecutwfc = 45
 occupations = 'smearing'
 smearing = 'mp'
 degauss=0.01
/

&electrons
/

ATOMIC_SPECIES
 C      12.01100     C.pbe-n-kjpaw_psl.1.0.0.UPF
ATOMIC_POSITIONS angstrom
C  0.00 0.00 0.00    0   0   0
C  0.00 0.00 1.2822726145    0   0   1
K_POINTS automatic
 1 1 31 1 1 1
