&control
 calculation='bands'
 prefix='1c_112'
 pseudo_dir='/home/ubuntu/aws/492/'
 outdir='./outdir/'
/
&system    
 ibrav 	= 6
 a     	= 10
 b     	= 10
 c     	= 2.56454523
 nat   	= 2
 ntyp  	= 1
 ecutwfc = 45
 occupations = 'smearing'
 smearing = 'mp'
 degauss=0.01
 nbnd=16
/
&electrons
/
&ions
/
&cell
/
ATOMIC_SPECIES
 C      12.01100     C.pbe-n-kjpaw_psl.1.0.0.UPF
ATOMIC_POSITIONS angstrom
C             0.0000000000        0.0000000000        0.0000000000    0   0   0
C             0.0000000000        0.0000000000        1.2822726145    0   0   1
K_POINTS tpiba_b
2
gG     20
Z      20
