&BANDS
    prefix='b2n2'
    outdir='./outdir/'
    filband='b2n2.bands.pp.dat'
/
