CONTROL {
	calculation='scf'
	outdir='./tmp/'
	prefix='Al'
	pseudo_dir='.'
	}

SYSTEM {
	ibrav=2
	celldm(1)=7.65
	nat=1
	ntyp=1
	ecutwfc=20
	ecutrho=8*20
	occupations='smearing'
	smearing='marzari-vanderbilt'
	degauss=0.02
}

ELECTRONS {
}

ATOMIC_SPECIES {
	Al 26.98 Al.pz-vbc.UPF
} 

ATOMIC_POSITIONS alat {
	Al	0.0 0.0 0.0
}

K_POINTS automatic {
	8 8 8 1 1 1
}
